(set-logic QF_LRA)
(declare-fun T1 () Real )
(declare-fun T2 () Real )
(declare-fun T3 () Real )
(declare-fun T4 () Real )
(declare-fun T5 () Real )
(declare-fun T6 () Real )
(declare-fun Z () Real )
(declare-fun k () Real )
(assert (let
(( $goal (>= Z k) ))
(let
((
$phi ( and 
(or ( <= ( + T1 95 ) T2 ) ( <= ( + T2 75 ) T1 ) )
(or ( <= ( + T1 129 )  ( + T2 75 ) ) ( <= ( + T2 173 )( + T1 95 ) ) )
(or ( <= ( + T1 202 )  ( + T2 173 ) ) ( <= ( + T2 242 )( + T1 129 ) ) )
(or ( <= ( + T1 212 )  ( + T2 242 ) ) ( <= ( + T2 330 )( + T1 202 ) ) )
(or ( <= ( + T1 292 )  ( + T2 330 ) ) ( <= ( + T2 363 )( + T1 212 ) ) )
(or ( <= ( + T1 318 )  ( + T2 363 ) ) ( <= ( + T2 389 )( + T1 292 ) ) )
(or ( <= ( + T1 319 )  ( + T2 389 ) ) ( <= ( + T2 412 )( + T1 318 ) ) )
(or ( <= ( + T1 366 )  ( + T2 412 ) ) ( <= ( + T2 500 )( + T1 319 ) ) )
(or ( <= ( + T1 95 ) T3 ) ( <= ( + T3 64 ) T1 ) )
(or ( <= ( + T1 129 )  ( + T3 64 ) ) ( <= ( + T3 83 )( + T1 95 ) ) )
(or ( <= ( + T1 202 )  ( + T3 83 ) ) ( <= ( + T3 138 )( + T1 129 ) ) )
(or ( <= ( + T1 212 )  ( + T3 138 ) ) ( <= ( + T3 217 )( + T1 202 ) ) )
(or ( <= ( + T1 292 )  ( + T3 217 ) ) ( <= ( + T3 279 )( + T1 212 ) ) )
(or ( <= ( + T1 318 )  ( + T3 279 ) ) ( <= ( + T3 294 )( + T1 292 ) ) )
(or ( <= ( + T1 319 )  ( + T3 294 ) ) ( <= ( + T3 305 )( + T1 318 ) ) )
(or ( <= ( + T1 366 )  ( + T3 305 ) ) ( <= ( + T3 335 )( + T1 319 ) ) )
(or ( <= ( + T1 95 ) T4 ) ( <= ( + T4 34 ) T1 ) )
(or ( <= ( + T1 129 )  ( + T4 34 ) ) ( <= ( + T4 47 )( + T1 95 ) ) )
(or ( <= ( + T1 202 )  ( + T4 47 ) ) ( <= ( + T4 109 )( + T1 129 ) ) )
(or ( <= ( + T1 212 )  ( + T4 109 ) ) ( <= ( + T4 192 )( + T1 202 ) ) )
(or ( <= ( + T1 292 )  ( + T4 192 ) ) ( <= ( + T4 240 )( + T1 212 ) ) )
(or ( <= ( + T1 318 )  ( + T4 240 ) ) ( <= ( + T4 314 )( + T1 292 ) ) )
(or ( <= ( + T1 319 )  ( + T4 314 ) ) ( <= ( + T4 374 )( + T1 318 ) ) )
(or ( <= ( + T1 366 )  ( + T4 374 ) ) ( <= ( + T4 416 )( + T1 319 ) ) )
(or ( <= ( + T1 95 ) T5 ) ( <= ( + T5 59 ) T1 ) )
(or ( <= ( + T1 129 )  ( + T5 59 ) ) ( <= ( + T5 91 )( + T1 95 ) ) )
(or ( <= ( + T1 202 )  ( + T5 91 ) ) ( <= ( + T5 95 )( + T1 129 ) ) )
(or ( <= ( + T1 212 )  ( + T5 95 ) ) ( <= ( + T5 133 )( + T1 202 ) ) )
(or ( <= ( + T1 292 )  ( + T5 133 ) ) ( <= ( + T5 143 )( + T1 212 ) ) )
(or ( <= ( + T1 318 )  ( + T5 143 ) ) ( <= ( + T5 147 )( + T1 292 ) ) )
(or ( <= ( + T1 319 )  ( + T5 147 ) ) ( <= ( + T5 231 )( + T1 318 ) ) )
(or ( <= ( + T1 366 )  ( + T5 231 ) ) ( <= ( + T5 267 )( + T1 319 ) ) )
(or ( <= ( + T1 95 ) T6 ) ( <= ( + T6 53 ) T1 ) )
(or ( <= ( + T1 129 )  ( + T6 53 ) ) ( <= ( + T6 106 )( + T1 95 ) ) )
(or ( <= ( + T1 202 )  ( + T6 106 ) ) ( <= ( + T6 181 )( + T1 129 ) ) )
(or ( <= ( + T1 212 )  ( + T6 181 ) ) ( <= ( + T6 266 )( + T1 202 ) ) )
(or ( <= ( + T1 292 )  ( + T6 266 ) ) ( <= ( + T6 296 )( + T1 212 ) ) )
(or ( <= ( + T1 318 )  ( + T6 296 ) ) ( <= ( + T6 394 )( + T1 292 ) ) )
(or ( <= ( + T1 319 )  ( + T6 394 ) ) ( <= ( + T6 418 )( + T1 318 ) ) )
(or ( <= ( + T1 366 )  ( + T6 418 ) ) ( <= ( + T6 512 )( + T1 319 ) ) )
(or ( <= ( + T2 75 ) T3 ) ( <= ( + T3 64 ) T2 ) )
(or ( <= ( + T2 173 )  ( + T3 64 ) ) ( <= ( + T3 83 )( + T2 75 ) ) )
(or ( <= ( + T2 242 )  ( + T3 83 ) ) ( <= ( + T3 138 )( + T2 173 ) ) )
(or ( <= ( + T2 330 )  ( + T3 138 ) ) ( <= ( + T3 217 )( + T2 242 ) ) )
(or ( <= ( + T2 363 )  ( + T3 217 ) ) ( <= ( + T3 279 )( + T2 330 ) ) )
(or ( <= ( + T2 389 )  ( + T3 279 ) ) ( <= ( + T3 294 )( + T2 363 ) ) )
(or ( <= ( + T2 412 )  ( + T3 294 ) ) ( <= ( + T3 305 )( + T2 389 ) ) )
(or ( <= ( + T2 500 )  ( + T3 305 ) ) ( <= ( + T3 335 )( + T2 412 ) ) )
(or ( <= ( + T2 75 ) T4 ) ( <= ( + T4 34 ) T2 ) )
(or ( <= ( + T2 173 )  ( + T4 34 ) ) ( <= ( + T4 47 )( + T2 75 ) ) )
(or ( <= ( + T2 242 )  ( + T4 47 ) ) ( <= ( + T4 109 )( + T2 173 ) ) )
(or ( <= ( + T2 330 )  ( + T4 109 ) ) ( <= ( + T4 192 )( + T2 242 ) ) )
(or ( <= ( + T2 363 )  ( + T4 192 ) ) ( <= ( + T4 240 )( + T2 330 ) ) )
(or ( <= ( + T2 389 )  ( + T4 240 ) ) ( <= ( + T4 314 )( + T2 363 ) ) )
(or ( <= ( + T2 412 )  ( + T4 314 ) ) ( <= ( + T4 374 )( + T2 389 ) ) )
(or ( <= ( + T2 500 )  ( + T4 374 ) ) ( <= ( + T4 416 )( + T2 412 ) ) )
(or ( <= ( + T2 75 ) T5 ) ( <= ( + T5 59 ) T2 ) )
(or ( <= ( + T2 173 )  ( + T5 59 ) ) ( <= ( + T5 91 )( + T2 75 ) ) )
(or ( <= ( + T2 242 )  ( + T5 91 ) ) ( <= ( + T5 95 )( + T2 173 ) ) )
(or ( <= ( + T2 330 )  ( + T5 95 ) ) ( <= ( + T5 133 )( + T2 242 ) ) )
(or ( <= ( + T2 363 )  ( + T5 133 ) ) ( <= ( + T5 143 )( + T2 330 ) ) )
(or ( <= ( + T2 389 )  ( + T5 143 ) ) ( <= ( + T5 147 )( + T2 363 ) ) )
(or ( <= ( + T2 412 )  ( + T5 147 ) ) ( <= ( + T5 231 )( + T2 389 ) ) )
(or ( <= ( + T2 500 )  ( + T5 231 ) ) ( <= ( + T5 267 )( + T2 412 ) ) )
(or ( <= ( + T2 75 ) T6 ) ( <= ( + T6 53 ) T2 ) )
(or ( <= ( + T2 173 )  ( + T6 53 ) ) ( <= ( + T6 106 )( + T2 75 ) ) )
(or ( <= ( + T2 242 )  ( + T6 106 ) ) ( <= ( + T6 181 )( + T2 173 ) ) )
(or ( <= ( + T2 330 )  ( + T6 181 ) ) ( <= ( + T6 266 )( + T2 242 ) ) )
(or ( <= ( + T2 363 )  ( + T6 266 ) ) ( <= ( + T6 296 )( + T2 330 ) ) )
(or ( <= ( + T2 389 )  ( + T6 296 ) ) ( <= ( + T6 394 )( + T2 363 ) ) )
(or ( <= ( + T2 412 )  ( + T6 394 ) ) ( <= ( + T6 418 )( + T2 389 ) ) )
(or ( <= ( + T2 500 )  ( + T6 418 ) ) ( <= ( + T6 512 )( + T2 412 ) ) )
(or ( <= ( + T3 64 ) T4 ) ( <= ( + T4 34 ) T3 ) )
(or ( <= ( + T3 83 )  ( + T4 34 ) ) ( <= ( + T4 47 )( + T3 64 ) ) )
(or ( <= ( + T3 138 )  ( + T4 47 ) ) ( <= ( + T4 109 )( + T3 83 ) ) )
(or ( <= ( + T3 217 )  ( + T4 109 ) ) ( <= ( + T4 192 )( + T3 138 ) ) )
(or ( <= ( + T3 279 )  ( + T4 192 ) ) ( <= ( + T4 240 )( + T3 217 ) ) )
(or ( <= ( + T3 294 )  ( + T4 240 ) ) ( <= ( + T4 314 )( + T3 279 ) ) )
(or ( <= ( + T3 305 )  ( + T4 314 ) ) ( <= ( + T4 374 )( + T3 294 ) ) )
(or ( <= ( + T3 335 )  ( + T4 374 ) ) ( <= ( + T4 416 )( + T3 305 ) ) )
(or ( <= ( + T3 64 ) T5 ) ( <= ( + T5 59 ) T3 ) )
(or ( <= ( + T3 83 )  ( + T5 59 ) ) ( <= ( + T5 91 )( + T3 64 ) ) )
(or ( <= ( + T3 138 )  ( + T5 91 ) ) ( <= ( + T5 95 )( + T3 83 ) ) )
(or ( <= ( + T3 217 )  ( + T5 95 ) ) ( <= ( + T5 133 )( + T3 138 ) ) )
(or ( <= ( + T3 279 )  ( + T5 133 ) ) ( <= ( + T5 143 )( + T3 217 ) ) )
(or ( <= ( + T3 294 )  ( + T5 143 ) ) ( <= ( + T5 147 )( + T3 279 ) ) )
(or ( <= ( + T3 305 )  ( + T5 147 ) ) ( <= ( + T5 231 )( + T3 294 ) ) )
(or ( <= ( + T3 335 )  ( + T5 231 ) ) ( <= ( + T5 267 )( + T3 305 ) ) )
(or ( <= ( + T3 64 ) T6 ) ( <= ( + T6 53 ) T3 ) )
(or ( <= ( + T3 83 )  ( + T6 53 ) ) ( <= ( + T6 106 )( + T3 64 ) ) )
(or ( <= ( + T3 138 )  ( + T6 106 ) ) ( <= ( + T6 181 )( + T3 83 ) ) )
(or ( <= ( + T3 217 )  ( + T6 181 ) ) ( <= ( + T6 266 )( + T3 138 ) ) )
(or ( <= ( + T3 279 )  ( + T6 266 ) ) ( <= ( + T6 296 )( + T3 217 ) ) )
(or ( <= ( + T3 294 )  ( + T6 296 ) ) ( <= ( + T6 394 )( + T3 279 ) ) )
(or ( <= ( + T3 305 )  ( + T6 394 ) ) ( <= ( + T6 418 )( + T3 294 ) ) )
(or ( <= ( + T3 335 )  ( + T6 418 ) ) ( <= ( + T6 512 )( + T3 305 ) ) )
(or ( <= ( + T4 34 ) T5 ) ( <= ( + T5 59 ) T4 ) )
(or ( <= ( + T4 47 )  ( + T5 59 ) ) ( <= ( + T5 91 )( + T4 34 ) ) )
(or ( <= ( + T4 109 )  ( + T5 91 ) ) ( <= ( + T5 95 )( + T4 47 ) ) )
(or ( <= ( + T4 192 )  ( + T5 95 ) ) ( <= ( + T5 133 )( + T4 109 ) ) )
(or ( <= ( + T4 240 )  ( + T5 133 ) ) ( <= ( + T5 143 )( + T4 192 ) ) )
(or ( <= ( + T4 314 )  ( + T5 143 ) ) ( <= ( + T5 147 )( + T4 240 ) ) )
(or ( <= ( + T4 374 )  ( + T5 147 ) ) ( <= ( + T5 231 )( + T4 314 ) ) )
(or ( <= ( + T4 416 )  ( + T5 231 ) ) ( <= ( + T5 267 )( + T4 374 ) ) )
(or ( <= ( + T4 34 ) T6 ) ( <= ( + T6 53 ) T4 ) )
(or ( <= ( + T4 47 )  ( + T6 53 ) ) ( <= ( + T6 106 )( + T4 34 ) ) )
(or ( <= ( + T4 109 )  ( + T6 106 ) ) ( <= ( + T6 181 )( + T4 47 ) ) )
(or ( <= ( + T4 192 )  ( + T6 181 ) ) ( <= ( + T6 266 )( + T4 109 ) ) )
(or ( <= ( + T4 240 )  ( + T6 266 ) ) ( <= ( + T6 296 )( + T4 192 ) ) )
(or ( <= ( + T4 314 )  ( + T6 296 ) ) ( <= ( + T6 394 )( + T4 240 ) ) )
(or ( <= ( + T4 374 )  ( + T6 394 ) ) ( <= ( + T6 418 )( + T4 314 ) ) )
(or ( <= ( + T4 416 )  ( + T6 418 ) ) ( <= ( + T6 512 )( + T4 374 ) ) )
(or ( <= ( + T5 59 ) T6 ) ( <= ( + T6 53 ) T5 ) )
(or ( <= ( + T5 91 )  ( + T6 53 ) ) ( <= ( + T6 106 )( + T5 59 ) ) )
(or ( <= ( + T5 95 )  ( + T6 106 ) ) ( <= ( + T6 181 )( + T5 91 ) ) )
(or ( <= ( + T5 133 )  ( + T6 181 ) ) ( <= ( + T6 266 )( + T5 95 ) ) )
(or ( <= ( + T5 143 )  ( + T6 266 ) ) ( <= ( + T6 296 )( + T5 133 ) ) )
(or ( <= ( + T5 147 )  ( + T6 296 ) ) ( <= ( + T6 394 )( + T5 143 ) ) )
(or ( <= ( + T5 231 )  ( + T6 394 ) ) ( <= ( + T6 418 )( + T5 147 ) ) )
(or ( <= ( + T5 267 )  ( + T6 418 ) ) ( <= ( + T6 512 )( + T5 231 ) ) )
( <= ( + T1 366 ) Z)
( <= ( + T2 500 ) Z)
( <= ( + T3 335 ) Z)
( <= ( + T4 416 ) Z)
( <= ( + T5 267 ) Z)
( <= ( + T6 512 ) Z)
( >= T1 0 )
( >= T2 0 )
( >= T3 0 )
( >= T4 0 )
( >= T5 0 )
( >= T6 0 )
) )
)(=> $phi $goal))))